
Gurobi 11.0.3 (linux64) logging started Tue 19 Nov 2024 01:14:58 AM CST

Set parameter LogFile to value "/home/dlcole3/graph_abstraction/hierarchical_graphs/git_storage/CS1/HP_low_reserves/gurobi_logs/serial/logfile_ST29_8.log"

Gurobi 11.0.3 (linux64) logging started Tue 19 Nov 2024 01:29:59 AM CST

Set parameter LogFile to value "/home/dlcole3/graph_abstraction/hierarchical_graphs/git_storage/CS1/HP_low_reserves/gurobi_logs/serial/logfile_ST29_8.log"
Gurobi Optimizer version 11.0.3 build v11.0.3rc0 (linux64 - "Ubuntu 18.04.3 LTS")

CPU model: Intel(R) Xeon(R) CPU E5-2698 v4 @ 2.20GHz, instruction set [SSE2|AVX|AVX2]
Thread count: 40 physical cores, 80 logical processors, using up to 20 threads

Optimize a model with 29168 rows, 50688 columns and 136175 nonzeros
Model fingerprint: 0x600c611e
Variable types: 46944 continuous, 3744 integer (3744 binary)
Coefficient statistics:
  Matrix range     [6e-01, 2e+04]
  Objective range  [2e+00, 2e+04]
  Bounds range     [5e-02, 2e+05]
  RHS range        [1e-16, 7e+03]
Presolve removed 14127 rows and 38693 columns
Presolve time: 0.36s
Presolved: 15041 rows, 11995 columns, 64000 nonzeros
Variable types: 8978 continuous, 3017 integer (3017 binary)
Found heuristic solution: objective 170803.77198
Found heuristic solution: objective 163581.36338
Found heuristic solution: objective 136074.79664

Root relaxation: objective 2.928331e+04, 8645 iterations, 0.36 seconds (0.25 work units)

    Nodes    |    Current Node    |     Objective Bounds      |     Work
 Expl Unexpl |  Obj  Depth IntInf | Incumbent    BestBd   Gap | It/Node Time

     0     0 29283.3059    0   10 136074.797 29283.3059  78.5%     -    1s
H    0     0                    136074.79659 29283.3059  78.5%     -    1s
H    0     0                    43295.578478 29283.3059  32.4%     -    1s
H    0     0                    43295.578187 29283.3059  32.4%     -    1s
H    0     0                    30186.966561 29283.3059  2.99%     -    1s
     0     0 29283.3059    0   10 30186.9666 29283.3059  2.99%     -    1s
     0     0 29283.3059    0    3 30186.9666 29283.3059  2.99%     -    2s
     0     0 29289.9580    0    3 30186.9666 29289.9580  2.97%     -    2s
     0     2 29289.9580    0    3 30186.9666 29289.9580  2.97%     -    2s
H   52    50                    30036.455837 29304.3513  2.44%   8.4    2s
H   90    70                    30036.455834 29304.3513  2.44%   7.5    2s
H   91    70                    30036.455654 29304.8752  2.44%   7.4    2s
H   96    70                    29903.515657 29304.8752  2.00%   7.5    2s
H  106    71                    29687.904335 29304.8752  1.29%   7.5    3s
H  175    49                    29664.100585 29304.8752  1.21%   5.9    3s
H  183    49                    29644.906360 29304.8752  1.15%   5.8    3s
H  213    36                    29594.611389 29307.5638  0.97%   5.5    3s
*  275    27              13    29593.361191 29380.6954  0.72%   4.6    3s
H  290    27                    29587.572813 29380.6954  0.70%   4.5    3s
H  298    42                    29582.783390 29380.6954  0.68%   4.4    3s
H  310    42                    29572.845390 29380.6954  0.65%   4.3    3s
*  313    42              17    29572.704641 29380.6954  0.65%   4.3    3s

Explored 375 nodes (15879 simplex iterations) in 3.30 seconds (2.00 work units)
Thread count was 20 (of 80 available processors)

Solution count 10: 29572.7 29572.7 29572.8 ... 29903.5

Optimal solution found (tolerance 3.00e-03)
Best objective 2.957270464126e+04, best bound 2.957270464122e+04, gap 0.0000%

User-callback calls 2345, time in user-callback 0.00 sec
